NAME : portcgen-29-28
COMMENT : portcgen N=29, seed=28
TYPE : TSP
DIMENSION : 29
EDGE_WEIGHT_TYPE : EUC_2D
NODE_COORD_SECTION
1 131131 -96462
2 206885 -184682
3 -173995 313830
4 -102186 69753
5 -140068 -23766
6 -372988 -99153
7 208051 -210125
8 -14855 365800
9 47058 197020
10 -196523 306102
11 -31554 75825
12 248540 -306270
13 306283 -170152
14 -180298 -147658
15 -5470 -6262
16 179900 -190787
17 199085 -5890
18 -145833 -148367
19 -80524 -123949
20 368958 -26362
21 223648 25323
22 -124602 7640
23 -178476 -89025
24 -39040 49750
25 192408 -281144
26 668506 55796
27 -152530 -399965
28 -131378 108428
29 -122103 412625
